original problem has 842 variables (421 bin, 0 int, 0 impl, 421 cont) and 479 constraints
1/1 feasible solution given by solution candidate storage, new primal bound 1.158000e+03

presolving:
   (0.0s) running MILP presolver
   (0.0s) MILP presolver (2 rounds): 29 aggregations, 0 fixings, 0 bound changes
(round 1, medium)     29 del vars, 0 del conss, 0 add conss, 0 chg bounds, 0 chg sides, 0 chg coeffs, 0 upgd conss, 0 impls, 29 clqs
(round 2, fast)       29 del vars, 29 del conss, 0 add conss, 0 chg bounds, 0 chg sides, 0 chg coeffs, 0 upgd conss, 29 impls, 29 clqs
(round 3, exhaustive) 29 del vars, 29 del conss, 0 add conss, 0 chg bounds, 0 chg sides, 0 chg coeffs, 392 upgd conss, 29 impls, 29 clqs
   (0.1s) probing cycle finished: starting next cycle
(round 4, exhaustive) 30 del vars, 29 del conss, 0 add conss, 0 chg bounds, 0 chg sides, 0 chg coeffs, 392 upgd conss, 9127 impls, 1924 clqs
(round 5, fast)       30 del vars, 30 del conss, 0 add conss, 0 chg bounds, 0 chg sides, 0 chg coeffs, 392 upgd conss, 9127 impls, 1924 clqs
   (0.1s) probing cycle finished: starting next cycle
presolving (6 rounds: 6 fast, 4 medium, 3 exhaustive):
 30 deleted vars, 30 deleted constraints, 0 added constraints, 0 tightened bounds, 0 added holes, 0 changed sides, 0 changed coefficients
 9207 implications, 1924 cliques
presolved problem has 812 variables (392 bin, 0 int, 0 impl, 420 cont) and 449 constraints
    391 constraints of type <varbound>
     58 constraints of type <linear>
transformed objective value is always integral (scale: 1)
Presolving Time: 0.08
transformed 1/1 original solutions to the transformed problem space

 time | node  | left  |LP iter|LP it/n|mem/heur|mdpt |vars |cons |rows |cuts |sepa|confs|strbr|  dualbound   | primalbound  |  gap   | compl. 
  0.1s|     1 |     0 |   491 |     - |  8080k |   0 | 812 | 449 | 449 |   0 |  0 |   0 |   0 | 9.831674e+02 | 1.158000e+03 |  17.78%| unknown
  0.1s|     1 |     2 |   491 |     - |  8080k |   0 | 812 | 449 | 449 |   0 |  1 |   0 |   0 | 9.831674e+02 | 1.158000e+03 |  17.78%| unknown

SCIP Status        : solving was interrupted [node limit reached]
Solving Time (sec) : 0.10
Solving Nodes      : 1
Primal Bound       : +1.15800000000000e+03 (1 solutions)
Dual Bound         : +9.83167425263365e+02
Gap                : 17.78 %
wrote problem to file /mnt/lscratch/users/dferrario/Adaptive-Cutsel-MILP/TransformedInstances/aflow30a__trans__seed__1.mps
